0	645	208	312	595	86	964	38	107	31
645	0	302	924	263	263	547	886	654	745
208	302	0	431	603	802	522	914	495	501
312	924	431	0	712	30	232	797	780	480
595	263	603	712	0	929	489	99	716	905
86	263	802	30	929	0	625	262	904	610
964	547	522	232	489	625	0	336	891	618
38	886	914	797	99	262	336	0	335	860
107	654	495	780	716	904	891	335	0	806
31	745	501	480	905	610	618	860	806	0
